p cnf 42 135
3 -1 0
3 -2 0
1 2 -3 0
1 4 -5 0
-1 -4 -5 0
1 -4 5 0
-1 4 5 0
-7 5 0
-7 -6 0
-5 6 7 0
-9 -7 0
-9 -8 0
7 8 9 0
-9 -6 -10 0
9 6 -10 0
-9 6 10 0
9 -6 10 0
-12 8 0
-12 -11 0
-8 11 12 0
-13 -10 0
-13 -12 0
10 12 13 0
14 -3 0
14 13 0
3 -13 -14 0
-16 4 0
-16 15 0
-4 -15 16 0
17 6 0
17 -16 0
-6 16 -17 0
19 1 0
19 -18 0
-1 18 -19 0
-20 19 0
-20 -15 0
-19 15 20 0
-21 -17 0
-21 -20 0
17 20 21 0
-23 6 0
-23 22 0
-6 -22 23 0
-25 -6 0
-25 -24 0
6 24 25 0
23 -25 -26 0
-23 25 -26 0
23 25 26 0
-23 -25 26 0
27 -1 0
27 11 0
1 -11 -27 0
28 -16 0
28 -27 0
16 27 -28 0
29 -28 0
29 10 0
28 -10 -29 0
-30 -7 0
-30 29 0
7 -29 30 0
-9 22 -31 0
9 -22 -31 0
-9 -22 31 0
9 22 31 0
32 -15 0
32 -31 0
15 31 -32 0
-33 30 0
-33 32 0
-30 -32 33 0
34 26 0
34 33 0
-26 -33 -34 0
12 19 -35 0
-12 -19 -35 0
12 -19 35 0
-12 19 35 0
-36 -27 0
-36 6 0
27 -6 36 0
-37 -35 0
-37 -36 0
35 36 37 0
-22 -8 -38 0
22 8 -38 0
-22 8 38 0
22 -8 38 0
-39 -37 0
-39 -38 0
37 38 39 0
40 34 0
40 -39 0
-34 39 -40 0
41 -21 0
41 -40 0
21 40 -41 0
14 -41 -42 0
-14 41 -42 0
14 41 42 0
-14 -41 42 0
15 -35 23 0
-11 -41 -3 -6 -35 0
-35 2 -25 -12 0
10 27 31 0
11 23 0
-38 -34 1 27 10 0
20 40 -30 0
7 -23 -3 -37 0
-28 40 -6 19 0
-27 25 -1 -20 0
-15 37 40 5 0
17 26 9 -12 0
3 -37 -2 -34 -11 0
-33 38 35 -30 0
-23 11 27 21 0
-31 -39 -10 0
39 16 -3 41 9 0
-33 -31 0
-4 15 -10 -3 0
19 -18 -27 0
6 -18 -36 12 9 0
7 39 -4 -31 0
-22 17 34 23 19 0
-19 -4 7 17 25 0
29 -34 -30 -32 0
36 -5 -25 0
-16 1 -21 0
-34 15 11 -39 -1 -18 0
-27 32 28 30 0
-4 -31 -32 -11 0
-6 3 29 0
42 0
